p cnf 501 1509
-424 -250 0 
-424 322 0 
-250 -425 -263 0 
-250 -425 335 0 
-426 -250 0 
-426 322 0 
-250 -427 -263 0 
-250 -427 335 0 
-428 -250 0 
-428 322 0 
-250 -429 -263 0 
-250 -429 335 0 
-430 -250 0 
-430 322 0 
-250 -431 -263 0 
-250 -431 335 0 
-432 -250 0 
-432 322 0 
-250 -433 -263 0 
-250 -433 335 0 
-434 -250 0 
-434 322 0 
-250 -435 -263 0 
-250 -435 335 0 
-436 -264 0 
-436 336 0 
-264 -437 -277 0 
-264 -437 349 0 
-438 -264 0 
-438 336 0 
-264 -439 -277 0 
-264 -439 349 0 
-440 -264 0 
-440 336 0 
-264 -441 -277 0 
-264 -441 349 0 
-442 -264 0 
-442 336 0 
-264 -443 -277 0 
-264 -443 349 0 
-444 -264 0 
-444 336 0 
-264 -445 -277 0 
-264 -445 349 0 
-446 -264 0 
-446 336 0 
-264 -447 -277 0 
-264 -447 349 0 
-448 -278 0 
-448 350 0 
-278 -449 -291 0 
-278 -449 363 0 
-450 -278 0 
-450 350 0 
-278 -451 -291 0 
-278 -451 363 0 
-452 -278 0 
-452 350 0 
-278 -453 -291 0 
-278 -453 363 0 
-454 -278 0 
-454 350 0 
-278 -455 -291 0 
-278 -455 363 0 
-456 -278 0 
-456 350 0 
-278 -457 -291 0 
-278 -457 363 0 
-458 -278 0 
-458 350 0 
-278 -459 -291 0 
-278 -459 363 0 
-127 -460 388 0 
127 -460 415 0 
-364 -461 396 0 
364 -461 417 0 
-134 -462 397 0 
134 -462 418 0 
-372 -463 405 0 
372 -463 420 0 
-141 -464 406 0 
141 -464 421 0 
-380 -465 414 0 
380 -465 423 0 
-148 -466 250 0 
-148 -466 -322 0 
-148 -466 -364 0 
-148 -466 -388 0 
-388 -467 263 0 
-388 -467 -335 0 
-388 -467 -371 0 
-388 -467 -396 0 
-148 -73 -468 250 0 
-148 -73 -468 -322 0 
-148 -73 -468 -364 0 
-148 -73 -468 -388 0 
-388 -292 -469 263 0 
-388 -292 -469 -335 0 
-388 -292 -469 -371 0 
-388 -292 -469 -396 0 
-148 -74 -470 250 0 
-148 -74 -470 -322 0 
-148 -74 -470 -364 0 
-148 -74 -470 -388 0 
-388 -294 -471 263 0 
-388 -294 -471 -335 0 
-388 -294 -471 -371 0 
-388 -294 -471 -396 0 
-148 -75 -472 250 0 
-148 -75 -472 -322 0 
-148 -75 -472 -364 0 
-148 -75 -472 -388 0 
-388 -296 -473 263 0 
-388 -296 -473 -335 0 
-388 -296 -473 -371 0 
-388 -296 -473 -396 0 
-148 -76 -474 250 0 
-148 -76 -474 -322 0 
-148 -76 -474 -364 0 
-148 -76 -474 -388 0 
-388 -298 -475 263 0 
-388 -298 -475 -335 0 
-388 -298 -475 -371 0 
-388 -298 -475 -396 0 
-148 -77 -476 250 0 
-148 -77 -476 -322 0 
-148 -77 -476 -364 0 
-148 -77 -476 -388 0 
-388 -300 -477 263 0 
-388 -300 -477 -335 0 
-388 -300 -477 -371 0 
-388 -300 -477 -396 0 
-156 -78 -478 264 0 
-156 -78 -478 -336 0 
-156 -78 -478 -372 0 
-156 -78 -478 -397 0 
-397 -302 -479 277 0 
-397 -302 -479 -349 0 
-397 -302 -479 -379 0 
-397 -302 -479 -405 0 
-156 -480 264 0 
-156 -480 -336 0 
-156 -480 -372 0 
-156 -480 -397 0 
-397 -481 277 0 
-397 -481 -349 0 
-397 -481 -379 0 
-397 -481 -405 0 
-156 -79 -482 264 0 
-156 -79 -482 -336 0 
-156 -79 -482 -372 0 
-156 -79 -482 -397 0 
-397 -304 -483 277 0 
-397 -304 -483 -349 0 
-397 -304 -483 -379 0 
-397 -304 -483 -405 0 
-156 -80 -484 264 0 
-156 -80 -484 -336 0 
-156 -80 -484 -372 0 
-156 -80 -484 -397 0 
-397 -306 -485 277 0 
-397 -306 -485 -349 0 
-397 -306 -485 -379 0 
-397 -306 -485 -405 0 
-156 -81 -486 264 0 
-156 -81 -486 -336 0 
-156 -81 -486 -372 0 
-156 -81 -486 -397 0 
-397 -308 -487 277 0 
-397 -308 -487 -349 0 
-397 -308 -487 -379 0 
-397 -308 -487 -405 0 
-156 -82 -488 264 0 
-156 -82 -488 -336 0 
-156 -82 -488 -372 0 
-156 -82 -488 -397 0 
-397 -310 -489 277 0 
-397 -310 -489 -349 0 
-397 -310 -489 -379 0 
-397 -310 -489 -405 0 
-164 -83 -490 278 0 
-164 -83 -490 -350 0 
-164 -83 -490 -380 0 
-164 -83 -490 -406 0 
-406 -312 -491 291 0 
-406 -312 -491 -363 0 
-406 -312 -491 -387 0 
-406 -312 -491 -414 0 
-164 -84 -492 278 0 
-164 -84 -492 -350 0 
-164 -84 -492 -380 0 
-164 -84 -492 -406 0 
-406 -314 -493 291 0 
-406 -314 -493 -363 0 
-406 -314 -493 -387 0 
-406 -314 -493 -414 0 
-164 -494 278 0 
-164 -494 -350 0 
-164 -494 -380 0 
-164 -494 -406 0 
-406 -495 291 0 
-406 -495 -363 0 
-406 -495 -387 0 
-406 -495 -414 0 
-164 -85 -496 278 0 
-164 -85 -496 -350 0 
-164 -85 -496 -380 0 
-164 -85 -496 -406 0 
-406 -316 -497 291 0 
-406 -316 -497 -363 0 
-406 -316 -497 -387 0 
-406 -316 -497 -414 0 
-164 -86 -498 278 0 
-164 -86 -498 -350 0 
-164 -86 -498 -380 0 
-164 -86 -498 -406 0 
-406 -318 -499 291 0 
-406 -318 -499 -363 0 
-406 -318 -499 -387 0 
-406 -318 -499 -414 0 
-164 -87 -500 278 0 
-164 -87 -500 -350 0 
-164 -87 -500 -380 0 
-164 -87 -500 -406 0 
-406 -320 -501 291 0 
-406 -320 -501 -363 0 
-406 -320 -501 -387 0 
-406 -320 -501 -414 0 
-1 178 0 
1 -178 0 
-178 179 0 
178 -179 0 
-2 180 0 
2 -180 0 
-180 181 0 
180 -181 0 
-3 182 0 
3 -182 0 
-182 183 0 
182 -183 0 
-4 184 0 
4 -184 0 
-184 185 0 
184 -185 0 
-5 186 0 
5 -186 0 
-186 187 0 
186 -187 0 
-6 188 0 
6 -188 0 
-188 189 0 
188 -189 0 
-7 190 0 
7 -190 0 
-190 191 0 
190 -191 0 
-8 192 0 
8 -192 0 
-192 193 0 
192 -193 0 
-9 194 0 
9 -194 0 
-194 195 0 
194 -195 0 
-10 196 0 
10 -196 0 
-196 197 0 
196 -197 0 
-11 198 0 
11 -198 0 
-198 199 0 
198 -199 0 
-12 200 0 
12 -200 0 
-200 201 0 
200 -201 0 
-13 202 0 
13 -202 0 
-202 203 0 
202 -203 0 
-14 204 0 
14 -204 0 
-204 205 0 
204 -205 0 
-15 206 0 
15 -206 0 
-206 207 0 
206 -207 0 
-16 208 0 
16 -208 0 
-208 209 0 
208 -209 0 
-17 210 0 
17 -210 0 
-210 211 0 
210 -211 0 
-18 212 0 
18 -212 0 
-212 213 0 
212 -213 0 
-19 214 0 
19 -214 0 
-214 215 0 
214 -215 0 
-20 216 0 
20 -216 0 
-216 217 0 
216 -217 0 
-21 218 0 
21 -218 0 
-218 219 0 
218 -219 0 
-22 220 0 
22 -220 0 
-220 221 0 
220 -221 0 
-23 222 0 
23 -222 0 
-222 223 0 
222 -223 0 
-24 224 0 
24 -224 0 
-224 225 0 
224 -225 0 
-25 226 0 
25 -226 0 
-226 227 0 
226 -227 0 
-26 228 0 
26 -228 0 
-228 229 0 
228 -229 0 
-27 230 0 
27 -230 0 
-230 231 0 
230 -231 0 
-28 232 0 
28 -232 0 
-232 233 0 
232 -233 0 
-29 234 0 
29 -234 0 
-234 235 0 
234 -235 0 
-30 236 0 
30 -236 0 
-236 237 0 
236 -237 0 
-31 238 0 
31 -238 0 
-238 239 0 
238 -239 0 
-32 240 0 
32 -240 0 
-240 241 0 
240 -241 0 
-33 242 0 
33 -242 0 
-242 243 0 
242 -243 0 
-34 244 0 
34 -244 0 
-244 245 0 
244 -245 0 
-35 246 0 
35 -246 0 
-246 247 0 
246 -247 0 
-36 248 0 
36 -248 0 
-248 249 0 
248 -249 0 
-424 37 0 
-37 424 0 
-426 38 0 
-38 426 0 
-428 39 0 
-39 428 0 
-430 40 0 
-40 430 0 
-432 41 0 
-41 432 0 
-434 42 0 
-42 434 0 
37 38 39 40 41 42 250 0 
-148 -466 43 0 
-43 148 0 
-43 466 0 
-148 -73 -468 44 0 
-44 148 0 
-44 73 0 
-44 468 0 
-148 -74 -470 45 0 
-45 148 0 
-45 74 0 
-45 470 0 
-148 -75 -472 46 0 
-46 148 0 
-46 75 0 
-46 472 0 
-148 -76 -474 47 0 
-47 148 0 
-47 76 0 
-47 474 0 
-148 -77 -476 48 0 
-48 148 0 
-48 77 0 
-48 476 0 
-250 -425 251 0 
-251 250 0 
-251 425 0 
-250 -427 252 0 
-252 250 0 
-252 427 0 
-250 -429 253 0 
-253 250 0 
-253 429 0 
-250 -431 254 0 
-254 250 0 
-254 431 0 
-250 -433 255 0 
-255 250 0 
-255 433 0 
-250 -435 256 0 
-256 250 0 
-256 435 0 
251 252 253 254 255 256 -250 263 0 
-388 -467 257 0 
-257 388 0 
-257 467 0 
-388 -292 -469 258 0 
-258 388 0 
-258 292 0 
-258 469 0 
-388 -294 -471 259 0 
-259 388 0 
-259 294 0 
-259 471 0 
-388 -296 -473 260 0 
-260 388 0 
-260 296 0 
-260 473 0 
-388 -298 -475 261 0 
-261 388 0 
-261 298 0 
-261 475 0 
-388 -300 -477 262 0 
-262 388 0 
-262 300 0 
-262 477 0 
257 258 259 260 261 262 250 -263 0 
-436 49 0 
-49 436 0 
-438 50 0 
-50 438 0 
-440 51 0 
-51 440 0 
-442 52 0 
-52 442 0 
-444 53 0 
-53 444 0 
-446 54 0 
-54 446 0 
49 50 51 52 53 54 264 0 
-156 -78 -478 55 0 
-55 156 0 
-55 78 0 
-55 478 0 
-156 -480 56 0 
-56 156 0 
-56 480 0 
-156 -79 -482 57 0 
-57 156 0 
-57 79 0 
-57 482 0 
-156 -80 -484 58 0 
-58 156 0 
-58 80 0 
-58 484 0 
-156 -81 -486 59 0 
-59 156 0 
-59 81 0 
-59 486 0 
-156 -82 -488 60 0 
-60 156 0 
-60 82 0 
-60 488 0 
-264 -437 265 0 
-265 264 0 
-265 437 0 
-264 -439 266 0 
-266 264 0 
-266 439 0 
-264 -441 267 0 
-267 264 0 
-267 441 0 
-264 -443 268 0 
-268 264 0 
-268 443 0 
-264 -445 269 0 
-269 264 0 
-269 445 0 
-264 -447 270 0 
-270 264 0 
-270 447 0 
265 266 267 268 269 270 -264 277 0 
-397 -302 -479 271 0 
-271 397 0 
-271 302 0 
-271 479 0 
-397 -481 272 0 
-272 397 0 
-272 481 0 
-397 -304 -483 273 0 
-273 397 0 
-273 304 0 
-273 483 0 
-397 -306 -485 274 0 
-274 397 0 
-274 306 0 
-274 485 0 
-397 -308 -487 275 0 
-275 397 0 
-275 308 0 
-275 487 0 
-397 -310 -489 276 0 
-276 397 0 
-276 310 0 
-276 489 0 
271 272 273 274 275 276 264 -277 0 
-448 61 0 
-61 448 0 
-450 62 0 
-62 450 0 
-452 63 0 
-63 452 0 
-454 64 0 
-64 454 0 
-456 65 0 
-65 456 0 
-458 66 0 
-66 458 0 
61 62 63 64 65 66 278 0 
-164 -83 -490 67 0 
-67 164 0 
-67 83 0 
-67 490 0 
-164 -84 -492 68 0 
-68 164 0 
-68 84 0 
-68 492 0 
-164 -494 69 0 
-69 164 0 
-69 494 0 
-164 -85 -496 70 0 
-70 164 0 
-70 85 0 
-70 496 0 
-164 -86 -498 71 0 
-71 164 0 
-71 86 0 
-71 498 0 
-164 -87 -500 72 0 
-72 164 0 
-72 87 0 
-72 500 0 
-278 -449 279 0 
-279 278 0 
-279 449 0 
-278 -451 280 0 
-280 278 0 
-280 451 0 
-278 -453 281 0 
-281 278 0 
-281 453 0 
-278 -455 282 0 
-282 278 0 
-282 455 0 
-278 -457 283 0 
-283 278 0 
-283 457 0 
-278 -459 284 0 
-284 278 0 
-284 459 0 
279 280 281 282 283 284 -278 291 0 
-406 -312 -491 285 0 
-285 406 0 
-285 312 0 
-285 491 0 
-406 -314 -493 286 0 
-286 406 0 
-286 314 0 
-286 493 0 
-406 -495 287 0 
-287 406 0 
-287 495 0 
-406 -316 -497 288 0 
-288 406 0 
-288 316 0 
-288 497 0 
-406 -318 -499 289 0 
-289 406 0 
-289 318 0 
-289 499 0 
-406 -320 -501 290 0 
-290 406 0 
-290 320 0 
-290 501 0 
285 286 287 288 289 290 278 -291 0 
-73 292 0 
73 -292 0 
-292 293 0 
292 -293 0 
-74 294 0 
74 -294 0 
-294 295 0 
294 -295 0 
-75 296 0 
75 -296 0 
-296 297 0 
296 -297 0 
-76 298 0 
76 -298 0 
-298 299 0 
298 -299 0 
-77 300 0 
77 -300 0 
-300 301 0 
300 -301 0 
-78 302 0 
78 -302 0 
-302 303 0 
302 -303 0 
-79 304 0 
79 -304 0 
-304 305 0 
304 -305 0 
-80 306 0 
80 -306 0 
-306 307 0 
306 -307 0 
-81 308 0 
81 -308 0 
-308 309 0 
308 -309 0 
-82 310 0 
82 -310 0 
-310 311 0 
310 -311 0 
-83 312 0 
83 -312 0 
-312 313 0 
312 -313 0 
-84 314 0 
84 -314 0 
-314 315 0 
314 -315 0 
-85 316 0 
85 -316 0 
-316 317 0 
316 -317 0 
-86 318 0 
86 -318 0 
-318 319 0 
318 -319 0 
-87 320 0 
87 -320 0 
-320 321 0 
320 -321 0 
-148 -466 89 0 
-89 148 0 
-89 466 0 
-148 -73 -468 90 0 
-90 148 0 
-90 73 0 
-90 468 0 
-148 -74 -470 91 0 
-91 148 0 
-91 74 0 
-91 470 0 
-148 -75 -472 92 0 
-92 148 0 
-92 75 0 
-92 472 0 
-148 -76 -474 93 0 
-93 148 0 
-93 76 0 
-93 474 0 
-148 -77 -476 94 0 
-94 148 0 
-94 77 0 
-94 476 0 
89 90 91 92 93 94 -88 322 0 
-424 95 0 
-95 424 0 
-426 96 0 
-96 426 0 
-428 97 0 
-97 428 0 
-430 98 0 
-98 430 0 
-432 99 0 
-99 432 0 
-434 100 0 
-100 434 0 
95 96 97 98 99 100 88 -322 0 
-388 -467 323 0 
-323 388 0 
-323 467 0 
-388 -292 -469 324 0 
-324 388 0 
-324 292 0 
-324 469 0 
-388 -294 -471 325 0 
-325 388 0 
-325 294 0 
-325 471 0 
-388 -296 -473 326 0 
-326 388 0 
-326 296 0 
-326 473 0 
-388 -298 -475 327 0 
-327 388 0 
-327 298 0 
-327 475 0 
-388 -300 -477 328 0 
-328 388 0 
-328 300 0 
-328 477 0 
323 324 325 326 327 328 -322 335 0 
-250 -425 329 0 
-329 250 0 
-329 425 0 
-250 -427 330 0 
-330 250 0 
-330 427 0 
-250 -429 331 0 
-331 250 0 
-331 429 0 
-250 -431 332 0 
-332 250 0 
-332 431 0 
-250 -433 333 0 
-333 250 0 
-333 433 0 
-250 -435 334 0 
-334 250 0 
-334 435 0 
329 330 331 332 333 334 322 -335 0 
-156 -78 -478 102 0 
-102 156 0 
-102 78 0 
-102 478 0 
-156 -480 103 0 
-103 156 0 
-103 480 0 
-156 -79 -482 104 0 
-104 156 0 
-104 79 0 
-104 482 0 
-156 -80 -484 105 0 
-105 156 0 
-105 80 0 
-105 484 0 
-156 -81 -486 106 0 
-106 156 0 
-106 81 0 
-106 486 0 
-156 -82 -488 107 0 
-107 156 0 
-107 82 0 
-107 488 0 
102 103 104 105 106 107 -101 336 0 
-436 108 0 
-108 436 0 
-438 109 0 
-109 438 0 
-440 110 0 
-110 440 0 
-442 111 0 
-111 442 0 
-444 112 0 
-112 444 0 
-446 113 0 
-113 446 0 
108 109 110 111 112 113 101 -336 0 
-397 -302 -479 337 0 
-337 397 0 
-337 302 0 
-337 479 0 
-397 -481 338 0 
-338 397 0 
-338 481 0 
-397 -304 -483 339 0 
-339 397 0 
-339 304 0 
-339 483 0 
-397 -306 -485 340 0 
-340 397 0 
-340 306 0 
-340 485 0 
-397 -308 -487 341 0 
-341 397 0 
-341 308 0 
-341 487 0 
-397 -310 -489 342 0 
-342 397 0 
-342 310 0 
-342 489 0 
337 338 339 340 341 342 -336 349 0 
-264 -437 343 0 
-343 264 0 
-343 437 0 
-264 -439 344 0 
-344 264 0 
-344 439 0 
-264 -441 345 0 
-345 264 0 
-345 441 0 
-264 -443 346 0 
-346 264 0 
-346 443 0 
-264 -445 347 0 
-347 264 0 
-347 445 0 
-264 -447 348 0 
-348 264 0 
-348 447 0 
343 344 345 346 347 348 336 -349 0 
-164 -83 -490 115 0 
-115 164 0 
-115 83 0 
-115 490 0 
-164 -84 -492 116 0 
-116 164 0 
-116 84 0 
-116 492 0 
-164 -494 117 0 
-117 164 0 
-117 494 0 
-164 -85 -496 118 0 
-118 164 0 
-118 85 0 
-118 496 0 
-164 -86 -498 119 0 
-119 164 0 
-119 86 0 
-119 498 0 
-164 -87 -500 120 0 
-120 164 0 
-120 87 0 
-120 500 0 
115 116 117 118 119 120 -114 350 0 
-448 121 0 
-121 448 0 
-450 122 0 
-122 450 0 
-452 123 0 
-123 452 0 
-454 124 0 
-124 454 0 
-456 125 0 
-125 456 0 
-458 126 0 
-126 458 0 
121 122 123 124 125 126 114 -350 0 
-406 -312 -491 351 0 
-351 406 0 
-351 312 0 
-351 491 0 
-406 -314 -493 352 0 
-352 406 0 
-352 314 0 
-352 493 0 
-406 -495 353 0 
-353 406 0 
-353 495 0 
-406 -316 -497 354 0 
-354 406 0 
-354 316 0 
-354 497 0 
-406 -318 -499 355 0 
-355 406 0 
-355 318 0 
-355 499 0 
-406 -320 -501 356 0 
-356 406 0 
-356 320 0 
-356 501 0 
351 352 353 354 355 356 -350 363 0 
-278 -449 357 0 
-357 278 0 
-357 449 0 
-278 -451 358 0 
-358 278 0 
-358 451 0 
-278 -453 359 0 
-359 278 0 
-359 453 0 
-278 -455 360 0 
-360 278 0 
-360 455 0 
-278 -457 361 0 
-361 278 0 
-361 457 0 
-278 -459 362 0 
-362 278 0 
-362 459 0 
357 358 359 360 361 362 350 -363 0 
-148 -466 128 0 
-128 148 0 
-128 466 0 
-148 -73 -468 129 0 
-129 148 0 
-129 73 0 
-129 468 0 
-148 -74 -470 130 0 
-130 148 0 
-130 74 0 
-130 470 0 
-148 -75 -472 131 0 
-131 148 0 
-131 75 0 
-131 472 0 
-148 -76 -474 132 0 
-132 148 0 
-132 76 0 
-132 474 0 
-148 -77 -476 133 0 
-133 148 0 
-133 77 0 
-133 476 0 
128 129 130 131 132 133 -127 364 0 
127 -364 0 
-388 -467 365 0 
-365 388 0 
-365 467 0 
-388 -292 -469 366 0 
-366 388 0 
-366 292 0 
-366 469 0 
-388 -294 -471 367 0 
-367 388 0 
-367 294 0 
-367 471 0 
-388 -296 -473 368 0 
-368 388 0 
-368 296 0 
-368 473 0 
-388 -298 -475 369 0 
-369 388 0 
-369 298 0 
-369 475 0 
-388 -300 -477 370 0 
-370 388 0 
-370 300 0 
-370 477 0 
365 366 367 368 369 370 -364 371 0 
364 -371 0 
-156 -78 -478 135 0 
-135 156 0 
-135 78 0 
-135 478 0 
-156 -480 136 0 
-136 156 0 
-136 480 0 
-156 -79 -482 137 0 
-137 156 0 
-137 79 0 
-137 482 0 
-156 -80 -484 138 0 
-138 156 0 
-138 80 0 
-138 484 0 
-156 -81 -486 139 0 
-139 156 0 
-139 81 0 
-139 486 0 
-156 -82 -488 140 0 
-140 156 0 
-140 82 0 
-140 488 0 
135 136 137 138 139 140 -134 372 0 
134 -372 0 
-397 -302 -479 373 0 
-373 397 0 
-373 302 0 
-373 479 0 
-397 -481 374 0 
-374 397 0 
-374 481 0 
-397 -304 -483 375 0 
-375 397 0 
-375 304 0 
-375 483 0 
-397 -306 -485 376 0 
-376 397 0 
-376 306 0 
-376 485 0 
-397 -308 -487 377 0 
-377 397 0 
-377 308 0 
-377 487 0 
-397 -310 -489 378 0 
-378 397 0 
-378 310 0 
-378 489 0 
373 374 375 376 377 378 -372 379 0 
372 -379 0 
-164 -83 -490 142 0 
-142 164 0 
-142 83 0 
-142 490 0 
-164 -84 -492 143 0 
-143 164 0 
-143 84 0 
-143 492 0 
-164 -494 144 0 
-144 164 0 
-144 494 0 
-164 -85 -496 145 0 
-145 164 0 
-145 85 0 
-145 496 0 
-164 -86 -498 146 0 
-146 164 0 
-146 86 0 
-146 498 0 
-164 -87 -500 147 0 
-147 164 0 
-147 87 0 
-147 500 0 
142 143 144 145 146 147 -141 380 0 
141 -380 0 
-406 -312 -491 381 0 
-381 406 0 
-381 312 0 
-381 491 0 
-406 -314 -493 382 0 
-382 406 0 
-382 314 0 
-382 493 0 
-406 -495 383 0 
-383 406 0 
-383 495 0 
-406 -316 -497 384 0 
-384 406 0 
-384 316 0 
-384 497 0 
-406 -318 -499 385 0 
-385 406 0 
-385 318 0 
-385 499 0 
-406 -320 -501 386 0 
-386 406 0 
-386 320 0 
-386 501 0 
381 382 383 384 385 386 -380 387 0 
380 -387 0 
-148 -466 149 0 
-149 148 0 
-149 466 0 
-148 -73 -468 150 0 
-150 148 0 
-150 73 0 
-150 468 0 
-148 -74 -470 151 0 
-151 148 0 
-151 74 0 
-151 470 0 
-148 -75 -472 152 0 
-152 148 0 
-152 75 0 
-152 472 0 
-148 -76 -474 153 0 
-153 148 0 
-153 76 0 
-153 474 0 
-148 -77 -476 154 0 
-154 148 0 
-154 77 0 
-154 476 0 
149 150 151 152 153 154 -148 388 0 
-127 -460 155 0 
-155 127 0 
-155 460 0 
155 148 -388 0 
-388 -467 389 0 
-389 388 0 
-389 467 0 
-388 -292 -469 390 0 
-390 388 0 
-390 292 0 
-390 469 0 
-388 -294 -471 391 0 
-391 388 0 
-391 294 0 
-391 471 0 
-388 -296 -473 392 0 
-392 388 0 
-392 296 0 
-392 473 0 
-388 -298 -475 393 0 
-393 388 0 
-393 298 0 
-393 475 0 
-388 -300 -477 394 0 
-394 388 0 
-394 300 0 
-394 477 0 
389 390 391 392 393 394 -388 396 0 
-364 -461 395 0 
-395 364 0 
-395 461 0 
395 388 -396 0 
-156 -78 -478 157 0 
-157 156 0 
-157 78 0 
-157 478 0 
-156 -480 158 0 
-158 156 0 
-158 480 0 
-156 -79 -482 159 0 
-159 156 0 
-159 79 0 
-159 482 0 
-156 -80 -484 160 0 
-160 156 0 
-160 80 0 
-160 484 0 
-156 -81 -486 161 0 
-161 156 0 
-161 81 0 
-161 486 0 
-156 -82 -488 162 0 
-162 156 0 
-162 82 0 
-162 488 0 
157 158 159 160 161 162 -156 397 0 
-134 -462 163 0 
-163 134 0 
-163 462 0 
163 156 -397 0 
-397 -302 -479 398 0 
-398 397 0 
-398 302 0 
-398 479 0 
-397 -481 399 0 
-399 397 0 
-399 481 0 
-397 -304 -483 400 0 
-400 397 0 
-400 304 0 
-400 483 0 
-397 -306 -485 401 0 
-401 397 0 
-401 306 0 
-401 485 0 
-397 -308 -487 402 0 
-402 397 0 
-402 308 0 
-402 487 0 
-397 -310 -489 403 0 
-403 397 0 
-403 310 0 
-403 489 0 
398 399 400 401 402 403 -397 405 0 
-372 -463 404 0 
-404 372 0 
-404 463 0 
404 397 -405 0 
-164 -83 -490 165 0 
-165 164 0 
-165 83 0 
-165 490 0 
-164 -84 -492 166 0 
-166 164 0 
-166 84 0 
-166 492 0 
-164 -494 167 0 
-167 164 0 
-167 494 0 
-164 -85 -496 168 0 
-168 164 0 
-168 85 0 
-168 496 0 
-164 -86 -498 169 0 
-169 164 0 
-169 86 0 
-169 498 0 
-164 -87 -500 170 0 
-170 164 0 
-170 87 0 
-170 500 0 
165 166 167 168 169 170 -164 406 0 
-141 -464 171 0 
-171 141 0 
-171 464 0 
171 164 -406 0 
-406 -312 -491 407 0 
-407 406 0 
-407 312 0 
-407 491 0 
-406 -314 -493 408 0 
-408 406 0 
-408 314 0 
-408 493 0 
-406 -495 409 0 
-409 406 0 
-409 495 0 
-406 -316 -497 410 0 
-410 406 0 
-410 316 0 
-410 497 0 
-406 -318 -499 411 0 
-411 406 0 
-411 318 0 
-411 499 0 
-406 -320 -501 412 0 
-412 406 0 
-412 320 0 
-412 501 0 
407 408 409 410 411 412 -406 414 0 
-380 -465 413 0 
-413 380 0 
-413 465 0 
413 406 -414 0 
-172 415 0 
127 -460 173 0 
-173 -127 0 
-173 460 0 
173 172 -415 0 
-415 417 0 
364 -461 416 0 
-416 -364 0 
-416 461 0 
416 415 -417 0 
-174 418 0 
134 -462 175 0 
-175 -134 0 
-175 462 0 
175 174 -418 0 
-418 420 0 
372 -463 419 0 
-419 -372 0 
-419 463 0 
419 418 -420 0 
-176 421 0 
141 -464 177 0 
-177 -141 0 
-177 464 0 
177 176 -421 0 
-421 423 0 
380 -465 422 0 
-422 -380 0 
-422 465 0 
422 421 -423 0 
-424 -466 0 
-424 -468 0 
-424 -470 0 
-424 -472 0 
-424 -474 0 
-424 -476 0 
-425 -467 0 
-425 -469 0 
-425 -471 0 
-425 -473 0 
-425 -475 0 
-425 -477 0 
-426 -466 0 
-426 -468 0 
-426 -470 0 
-426 -472 0 
-426 -474 0 
-426 -476 0 
-427 -467 0 
-427 -469 0 
-427 -471 0 
-427 -473 0 
-427 -475 0 
-427 -477 0 
-428 -466 0 
-428 -468 0 
-428 -470 0 
-428 -472 0 
-428 -474 0 
-428 -476 0 
-429 -467 0 
-429 -469 0 
-429 -471 0 
-429 -473 0 
-429 -475 0 
-429 -477 0 
-430 -466 0 
-430 -468 0 
-430 -470 0 
-430 -472 0 
-430 -474 0 
-430 -476 0 
-431 -467 0 
-431 -469 0 
-431 -471 0 
-431 -473 0 
-431 -475 0 
-431 -477 0 
-432 -466 0 
-432 -468 0 
-432 -470 0 
-432 -472 0 
-432 -474 0 
-432 -476 0 
-433 -467 0 
-433 -469 0 
-433 -471 0 
-433 -473 0 
-433 -475 0 
-433 -477 0 
-434 -466 0 
-434 -468 0 
-434 -470 0 
-434 -472 0 
-434 -474 0 
-434 -476 0 
-435 -467 0 
-435 -469 0 
-435 -471 0 
-435 -473 0 
-435 -475 0 
-435 -477 0 
-436 -478 0 
-436 -480 0 
-436 -482 0 
-436 -484 0 
-436 -486 0 
-436 -488 0 
-437 -479 0 
-437 -481 0 
-437 -483 0 
-437 -485 0 
-437 -487 0 
-437 -489 0 
-438 -478 0 
-438 -480 0 
-438 -482 0 
-438 -484 0 
-438 -486 0 
-438 -488 0 
-439 -479 0 
-439 -481 0 
-439 -483 0 
-439 -485 0 
-439 -487 0 
-439 -489 0 
-440 -478 0 
-440 -480 0 
-440 -482 0 
-440 -484 0 
-440 -486 0 
-440 -488 0 
-441 -479 0 
-441 -481 0 
-441 -483 0 
-441 -485 0 
-441 -487 0 
-441 -489 0 
-442 -478 0 
-442 -480 0 
-442 -482 0 
-442 -484 0 
-442 -486 0 
-442 -488 0 
-443 -479 0 
-443 -481 0 
-443 -483 0 
-443 -485 0 
-443 -487 0 
-443 -489 0 
-444 -478 0 
-444 -480 0 
-444 -482 0 
-444 -484 0 
-444 -486 0 
-444 -488 0 
-445 -479 0 
-445 -481 0 
-445 -483 0 
-445 -485 0 
-445 -487 0 
-445 -489 0 
-446 -478 0 
-446 -480 0 
-446 -482 0 
-446 -484 0 
-446 -486 0 
-446 -488 0 
-447 -479 0 
-447 -481 0 
-447 -483 0 
-447 -485 0 
-447 -487 0 
-447 -489 0 
-448 -490 0 
-448 -492 0 
-448 -494 0 
-448 -496 0 
-448 -498 0 
-448 -500 0 
-449 -491 0 
-449 -493 0 
-449 -495 0 
-449 -497 0 
-449 -499 0 
-449 -501 0 
-450 -490 0 
-450 -492 0 
-450 -494 0 
-450 -496 0 
-450 -498 0 
-450 -500 0 
-451 -491 0 
-451 -493 0 
-451 -495 0 
-451 -497 0 
-451 -499 0 
-451 -501 0 
-452 -490 0 
-452 -492 0 
-452 -494 0 
-452 -496 0 
-452 -498 0 
-452 -500 0 
-453 -491 0 
-453 -493 0 
-453 -495 0 
-453 -497 0 
-453 -499 0 
-453 -501 0 
-454 -490 0 
-454 -492 0 
-454 -494 0 
-454 -496 0 
-454 -498 0 
-454 -500 0 
-455 -491 0 
-455 -493 0 
-455 -495 0 
-455 -497 0 
-455 -499 0 
-455 -501 0 
-456 -490 0 
-456 -492 0 
-456 -494 0 
-456 -496 0 
-456 -498 0 
-456 -500 0 
-457 -491 0 
-457 -493 0 
-457 -495 0 
-457 -497 0 
-457 -499 0 
-457 -501 0 
-458 -490 0 
-458 -492 0 
-458 -494 0 
-458 -496 0 
-458 -498 0 
-458 -500 0 
-459 -491 0 
-459 -493 0 
-459 -495 0 
-459 -497 0 
-459 -499 0 
-459 -501 0 
-460 -466 0 
-460 -468 0 
-460 -470 0 
-460 -472 0 
-460 -474 0 
-460 -476 0 
-461 -467 0 
-461 -469 0 
-461 -471 0 
-461 -473 0 
-461 -475 0 
-461 -477 0 
-462 -478 0 
-462 -480 0 
-462 -482 0 
-462 -484 0 
-462 -486 0 
-462 -488 0 
-463 -479 0 
-463 -481 0 
-463 -483 0 
-463 -485 0 
-463 -487 0 
-463 -489 0 
-464 -490 0 
-464 -492 0 
-464 -494 0 
-464 -496 0 
-464 -498 0 
-464 -500 0 
-465 -491 0 
-465 -493 0 
-465 -495 0 
-465 -497 0 
-465 -499 0 
-465 -501 0 
